NAME: random_30_8
TYPE: TSP
COMMENT: random_30_8
DIMENSION: 30
EDGE_WEIGHT_TYPE: EUC_2D
NODE_COORD_SECTION
1 287 142
2 403 10
3 215 256
4 166 248
5 468 136
6 282 169
7 385 279
8 189 403
9 304 345
10 363 294
11 202 220
12 283 294
13 284 387
14 443 200
15 372 174
16 394 432
17 229 495
18 188 420
19 401 408
20 355 191
21 104 227
22 117 260
23 399 30
24 2 257
25 411 167
26 383 252
27 423 322
28 251 199
29 422 274
30 129 247
